WARNING: for repeatability, setting FPU to use double precision
============================[ Problem Statistics ]=============================
|                                                                             |
|  Number of variables:           100                                         |
|  Number of clauses:             449                                         |
|  Parse time:                   0.00 s                                       |
|  Eliminated clauses:           0.00 Mb                                      |
|  Simplification time:          0.00 s                                       |
|                                                                             |
============================[ Search Statistics ]==============================
| Conflicts |          ORIGINAL         |          LEARNT          | Progress |
|           |    Vars  Clauses Literals |    Limit  Clauses Lit/Cl |          |
===============================================================================
|       100 |      97      445     1363 |      163      100      8 |  0.010 % |
===============================================================================
restarts              : 2
conflicts             : 144            (54732 /sec)
decisions             : 195            (0.00 % random) (74116 /sec)
propagations          : 3532           (1342455 /sec)
conflict literals     : 1052           (12.70 % deleted)
Memory used           : 13.00 MB
CPU time              : 0.002631 s

SATISFIABLE
